NAME : uni_primero7.tsp.tour
TYPE : TOUR
DIMENSION : 7
SOLUTION: 17.10344828721321
TOUR_SECTION
0, 4, 6, 1, 5, 2, 3, 0
1.190672079121705 - 0,4
1.0384603988597738 - 4,6
3.0413977050034053 - 6,1
0.9972462083156799 - 1,5
7.394497954560543 - 5,2
0.8006247560499267 - 2,3
2.6405491853021767 - 3,0
EOF